32	4
12	19	18	16
0	0	0	0	0	3	2	30	31
2	0	0	1	5	1	3
5	0	0	1	1	1	4
8	0	5	1	0	2	5	29
2	0	0	8	1	1	6
5	1	4	0	0	2	7	28
8	6	0	6	0	1	8
1	0	4	0	1	2	9	27
3	4	1	0	0	1	10
1	0	1	6	0	1	11
7	0	1	2	0	1	12
10	0	5	7	0	1	13
1	0	5	12	0	2	14	26
9	0	0	5	7	1	15
5	4	0	0	2	1	16
8	1	0	0	6	1	17
1	4	0	0	7	1	18
8	1	6	0	0	1	19
8	1	2	0	0	1	20
10	4	0	0	3	1	21
10	0	12	0	6	1	22
8	0	7	5	0	1	23
9	3	0	1	0	1	24
8	0	2	0	1	1	25
5	0	0	2	6	1	32
1	5	10	0	0	1	32
5	5	0	0	7	1	32
10	4	0	0	6	1	32
7	1	6	0	0	1	32
2	0	0	9	1	1	32
2	1	0	2	0	1	32
0	0	0	0	0	0
